p edge 621 601
e 1 2
e 1 3
e 1 4
e 1 5
e 1 6
e 1 7
e 1 8
e 1 9
e 1 10
e 1 11
e 1 12
e 1 13
e 1 14
e 1 15
e 1 16
e 1 17
e 1 18
e 1 19
e 1 20
e 1 21
e 1 22
e 1 23
e 1 24
e 1 25
e 1 26
e 1 27
e 1 28
e 1 29
e 1 30
e 1 31
e 1 32
e 1 33
e 1 34
e 1 35
e 1 36
e 1 37
e 1 38
e 1 39
e 1 40
e 1 41
e 1 42
e 1 43
e 1 44
e 45 46
e 45 47
e 45 48
e 45 49
e 45 50
e 45 51
e 45 52
e 45 53
e 45 54
e 45 55
e 45 56
e 45 57
e 45 58
e 45 59
e 45 60
e 45 61
e 45 62
e 45 63
e 45 64
e 45 65
e 45 66
e 45 67
e 45 68
e 45 69
e 45 70
e 45 71
e 45 72
e 45 73
e 45 74
e 45 75
e 45 76
e 45 77
e 45 78
e 45 79
e 45 80
e 81 82
e 81 83
e 81 84
e 81 85
e 81 86
e 81 87
e 81 88
e 81 89
e 81 90
e 81 91
e 81 92
e 81 93
e 94 95
e 94 96
e 94 97
e 94 98
e 94 99
e 94 100
e 94 101
e 94 102
e 94 103
e 94 104
e 105 106
e 105 107
e 105 108
e 105 109
e 105 110
e 105 111
e 105 112
e 105 113
e 105 114
e 105 115
e 105 116
e 105 117
e 105 118
e 105 119
e 105 120
e 105 121
e 105 122
e 105 123
e 105 124
e 105 125
e 105 126
e 105 127
e 105 128
e 105 129
e 105 130
e 105 131
e 105 132
e 105 133
e 105 134
e 105 135
e 105 136
e 105 137
e 105 138
e 105 139
e 140 141
e 140 142
e 140 143
e 140 144
e 140 145
e 140 146
e 140 147
e 140 148
e 140 149
e 140 150
e 140 151
e 140 152
e 140 153
e 140 154
e 140 155
e 140 156
e 140 157
e 140 158
e 140 159
e 140 160
e 140 161
e 140 162
e 140 163
e 140 164
e 140 165
e 140 166
e 140 167
e 140 168
e 140 169
e 140 170
e 140 171
e 140 172
e 140 173
e 140 174
e 140 175
e 140 176
e 140 177
e 178 179
e 178 180
e 178 181
e 178 182
e 178 183
e 178 184
e 178 185
e 178 186
e 178 187
e 178 188
e 178 189
e 178 190
e 178 191
e 178 192
e 178 193
e 178 194
e 178 195
e 178 196
e 178 197
e 178 198
e 199 200
e 199 201
e 199 202
e 199 203
e 199 204
e 199 205
e 199 206
e 199 207
e 199 208
e 199 209
e 199 210
e 199 211
e 199 212
e 199 213
e 199 214
e 199 215
e 199 216
e 199 217
e 199 218
e 199 219
e 199 220
e 199 221
e 199 222
e 199 223
e 199 224
e 199 225
e 199 226
e 199 227
e 199 228
e 199 229
e 199 230
e 199 231
e 199 232
e 199 233
e 199 234
e 199 235
e 199 236
e 199 237
e 238 239
e 238 240
e 238 241
e 238 242
e 238 243
e 238 244
e 238 245
e 238 246
e 238 247
e 238 248
e 238 249
e 238 250
e 238 251
e 238 252
e 238 253
e 238 254
e 238 255
e 238 256
e 238 257
e 238 258
e 238 259
e 238 260
e 238 261
e 238 262
e 238 263
e 238 264
e 238 265
e 238 266
e 238 267
e 238 268
e 238 269
e 238 270
e 238 271
e 238 272
e 238 273
e 238 274
e 238 275
e 238 276
e 238 277
e 238 278
e 279 280
e 279 281
e 279 282
e 279 283
e 279 284
e 279 285
e 279 286
e 279 287
e 279 288
e 279 289
e 279 290
e 279 291
e 279 292
e 279 293
e 279 294
e 279 295
e 279 296
e 279 297
e 279 298
e 279 299
e 279 300
e 279 301
e 279 302
e 303 304
e 303 305
e 303 306
e 303 307
e 303 308
e 303 309
e 303 310
e 303 311
e 303 312
e 303 313
e 303 314
e 303 315
e 303 316
e 303 317
e 303 318
e 303 319
e 303 320
e 303 321
e 303 322
e 303 323
e 303 324
e 303 325
e 303 326
e 303 327
e 303 328
e 303 329
e 303 330
e 303 331
e 303 332
e 303 333
e 303 334
e 303 335
e 303 336
e 303 337
e 303 338
e 303 339
e 340 341
e 340 342
e 340 343
e 340 344
e 340 345
e 340 346
e 340 347
e 340 348
e 340 349
e 340 350
e 340 351
e 340 352
e 340 353
e 340 354
e 340 355
e 340 356
e 340 357
e 340 358
e 340 359
e 340 360
e 340 361
e 340 362
e 340 363
e 340 364
e 340 365
e 340 366
e 340 367
e 340 368
e 340 369
e 340 370
e 340 371
e 340 372
e 340 373
e 340 374
e 340 375
e 340 376
e 340 377
e 340 378
e 340 379
e 340 380
e 340 381
e 340 382
e 340 383
e 340 384
e 340 385
e 340 386
e 340 387
e 388 389
e 388 390
e 388 391
e 388 392
e 388 393
e 388 394
e 388 395
e 388 396
e 388 397
e 388 398
e 399 400
e 399 401
e 399 402
e 399 403
e 399 404
e 399 405
e 399 406
e 399 407
e 399 408
e 399 409
e 399 410
e 399 411
e 399 412
e 399 413
e 399 414
e 399 415
e 399 416
e 399 417
e 399 418
e 399 419
e 399 420
e 399 421
e 399 422
e 399 423
e 399 424
e 399 425
e 399 426
e 399 427
e 399 428
e 399 429
e 399 430
e 399 431
e 399 432
e 399 433
e 399 434
e 399 435
e 399 436
e 399 437
e 399 438
e 399 439
e 399 440
e 399 441
e 399 442
e 399 443
e 399 444
e 399 445
e 446 447
e 446 448
e 446 449
e 446 450
e 446 451
e 446 452
e 446 453
e 446 454
e 446 455
e 446 456
e 446 457
e 446 458
e 446 459
e 446 460
e 446 461
e 446 462
e 446 463
e 446 464
e 446 465
e 446 466
e 446 467
e 446 468
e 446 469
e 446 470
e 471 472
e 471 473
e 471 474
e 471 475
e 471 476
e 471 477
e 471 478
e 471 479
e 471 480
e 471 481
e 482 483
e 482 484
e 482 485
e 482 486
e 482 487
e 482 488
e 482 489
e 482 490
e 482 491
e 482 492
e 482 493
e 482 494
e 482 495
e 482 496
e 482 497
e 482 498
e 482 499
e 482 500
e 482 501
e 482 502
e 482 503
e 482 504
e 482 505
e 482 506
e 482 507
e 482 508
e 482 509
e 482 510
e 511 512
e 511 513
e 511 514
e 511 515
e 511 516
e 511 517
e 511 518
e 511 519
e 511 520
e 511 521
e 511 522
e 511 523
e 511 524
e 511 525
e 511 526
e 511 527
e 511 528
e 511 529
e 511 530
e 511 531
e 511 532
e 533 534
e 533 535
e 533 536
e 533 537
e 533 538
e 533 539
e 533 540
e 533 541
e 533 542
e 533 543
e 533 544
e 533 545
e 533 546
e 533 547
e 533 548
e 533 549
e 533 550
e 533 551
e 533 552
e 533 553
e 533 554
e 533 555
e 533 556
e 533 557
e 533 558
e 533 559
e 533 560
e 533 561
e 533 562
e 533 563
e 533 564
e 533 565
e 533 566
e 533 567
e 533 568
e 533 569
e 533 570
e 533 571
e 533 572
e 533 573
e 533 574
e 533 575
e 533 576
e 533 577
e 533 578
e 533 579
e 533 580
e 581 582
e 581 583
e 581 584
e 581 585
e 581 586
e 581 587
e 581 588
e 581 589
e 581 590
e 581 591
e 581 592
e 581 593
e 581 594
e 581 595
e 581 596
e 581 597
e 581 598
e 581 599
e 581 600
e 581 601
e 581 602
e 581 603
e 581 604
e 581 605
e 581 606
e 581 607
e 581 608
e 581 609
e 581 610
e 581 611
e 581 612
e 581 613
e 581 614
e 581 615
e 581 616
e 581 617
e 581 618
e 581 619
e 581 620
e 581 621
